SECTION Graph 
Nodes 126
Edges 131
A 1 2 1 1000000 
A 1 3 1 1000000 
A 2 4 1 1000000 
A 2 5 1 1000000 
A 2 3 1 1000000 
A 2 6 1 1000000 
A 2 7 1 1000000 
A 3 8 1 1000000 
A 3 9 1 1000000 
A 3 10 1 1000000 
A 3 11 1 1000000 
A 3 12 1 1000000 
A 3 13 1 1000000 
A 3 14 1 1000000 
A 3 15 1 1000000 
A 3 16 1 1000000 
A 3 17 1 1000000 
A 3 18 1 1000000 
A 3 19 1 1000000 
A 3 20 1 1000000 
A 3 21 1 1000000 
A 3 22 1 1000000 
A 3 23 1 1000000 
A 3 24 1 1000000 
A 3 25 1 1000000 
A 3 26 1 1000000 
A 3 27 1 1000000 
A 3 28 1 1000000 
A 3 29 1 1000000 
A 3 30 1 1000000 
A 3 31 1 1000000 
A 3 32 1 1000000 
A 3 33 1 1000000 
A 3 34 1 1000000 
A 3 35 1 1000000 
A 3 36 1 1000000 
A 3 37 1 1000000 
A 3 38 1 1000000 
A 3 39 1 1000000 
A 3 40 1 1000000 
A 3 41 1 1000000 
A 3 42 1 1000000 
A 3 43 1 1000000 
A 3 44 1 1000000 
A 4 1 1 1000000 
A 5 88 1 1000000 
A 5 89 1 1000000 
A 5 90 1 1000000 
A 5 91 1 1000000 
A 5 92 1 1000000 
A 5 93 1 1000000 
A 5 94 1 1000000 
A 5 95 1 1000000 
A 5 96 1 1000000 
A 5 97 1 1000000 
A 5 98 1 1000000 
A 5 99 1 1000000 
A 5 100 1 1000000 
A 5 101 1 1000000 
A 5 102 1 1000000 
A 5 103 1 1000000 
A 5 104 1 1000000 
A 5 105 1 1000000 
A 5 106 1 1000000 
A 5 107 1 1000000 
A 5 108 1 1000000 
A 5 109 1 1000000 
A 5 110 1 1000000 
A 5 111 1 1000000 
A 5 112 1 1000000 
A 5 113 1 1000000 
A 5 114 1 1000000 
A 5 115 1 1000000 
A 5 116 1 1000000 
A 5 117 1 1000000 
A 5 118 1 1000000 
A 5 119 1 1000000 
A 5 120 1 1000000 
A 5 121 1 1000000 
A 5 122 1 1000000 
A 5 123 1 1000000 
A 5 124 1 1000000 
A 5 125 1 1000000 
A 5 126 1 1000000 
A 6 49 1 1000000 
A 7 79 1 1000000 
A 7 80 1 1000000 
A 7 81 1 1000000 
A 7 82 1 1000000 
A 7 83 1 1000000 
A 7 84 1 1000000 
A 7 85 1 1000000 
A 7 86 1 1000000 
A 7 87 1 1000000 
A 8 45 1 1000000 
A 9 63 1 1000000 
A 10 58 1 1000000 
A 11 69 1 1000000 
A 12 71 1 1000000 
A 13 55 1 1000000 
A 14 57 1 1000000 
A 15 56 1 1000000 
A 16 54 1 1000000 
A 17 76 1 1000000 
A 18 53 1 1000000 
A 19 48 1 1000000 
A 20 69 1 1000000 
A 21 64 1 1000000 
A 22 74 1 1000000 
A 23 66 1 1000000 
A 24 62 1 1000000 
A 25 59 1 1000000 
A 26 77 1 1000000 
A 27 69 1 1000000 
A 28 52 1 1000000 
A 29 53 1 1000000 
A 30 46 1 1000000 
A 31 51 1 1000000 
A 32 61 1 1000000 
A 33 47 1 1000000 
A 34 60 1 1000000 
A 35 50 1 1000000 
A 36 69 1 1000000 
A 37 73 1 1000000 
A 38 70 1 1000000 
A 39 75 1 1000000 
A 40 72 1 1000000 
A 41 67 1 1000000 
A 42 68 1 1000000 
A 43 65 1 1000000 
A 44 78 1 1000000 
END 
 
SECTION Terminals 
Terminals 6 
Root 1
T 29
T 20
T 11
T 18
T 36
T 27
END

EOF